Route #1: 26 12 40 17 51 16 63 1 73 33 6 68
Route #2: 2 62 28 61 22 64 42 43 41 56 23 49
Route #3: 44 3 24 18 55 25 50 32 9 39 72 58
Route #4: 31 10 38 65 66 11 53 35 7
Route #5: 67 46 8 19 14 59 54 27 52 34
Route #6: 13 57 15 5 37 20 70 60 71 69 36 47 21 74 30
Route #7: 4 45 29 48 75
Cost 737